c b=10,c=2045
p cnf 31 732
1 2 3 4 5 6 7 8 10 -20 0
2 3 4 5 6 7 8 9 10 -22 0
1 3 4 5 6 7 8 9 10 -23 0
1 2 4 5 6 7 8 9 10 -24 0
1 2 3 5 6 7 8 9 10 -25 0
1 2 3 4 6 7 8 9 10 -26 0
1 2 3 4 5 7 8 9 10 -27 0
1 2 3 4 5 6 8 9 10 -28 0
1 2 3 4 5 6 7 9 10 -29 0
1 2 3 4 5 6 7 8 10 -30 0
1 2 3 4 5 6 7 8 -10 20 0
1 3 5 7 9 -10 22 0
1 2 -10 23 0
1 2 3 -10 24 0
1 2 3 4 -10 25 0
1 2 3 4 5 -10 26 0
1 2 3 4 5 6 -10 27 0
1 2 3 4 5 6 7 -10 28 0
1 2 3 4 5 6 7 8 -10 29 0
1 2 3 4 5 6 7 8 9 -10 30 0
1 2 3 4 5 6 7 9 -19 0
1 2 3 4 5 6 7 8 9 -21 0
1 2 3 4 5 6 7 8 9 -31 0
1 -9 10 22 0
10 -31 0
1 -9 -10 -22 0
-9 -10 31 0
1 2 3 4 5 6 7 -9 19 0
2 4 6 8 -9 21 0
1 2 -9 23 0
1 2 3 -9 24 0
1 2 3 4 -9 25 0
1 2 3 4 5 -9 26 0
1 2 3 4 5 6 -9 27 0
1 2 3 4 5 6 7 -9 28 0
1 2 3 4 5 6 7 8 -9 29 0
1 2 3 4 5 6 7 8 -9 -30 0
1 2 3 4 5 6 8 -18 0
1 3 5 7 -8 10 20 0
2 3 4 5 -8 9 10 21 0
1 3 5 7 -8 -10 -20 0
1 3 5 7 9 -10 -21 0
-8 -10 31 0
1 3 5 7 -8 9 22 0
-8 9 -30 0
-8 -9 10 -21 0
1 -8 10 22 0
2 3 4 5 -9 -10 21 0
-8 -9 30 0
1 2 3 4 5 6 -8 18 0
1 2 -8 23 0
1 2 3 -8 24 0
1 2 3 4 -8 25 0
1 2 3 4 5 -8 26 0
1 2 3 4 5 6 -8 27 0
1 2 3 4 5 6 7 -8 28 0
1 2 3 4 5 6 7 -8 -29 0
1 2 3 4 5 7 -17 0
2 3 4 -7 8 9 10 20 0
2 4 6 -7 8 10 21 0
2 3 4 -7 8 9 -10 -20 0
8 9 -10 -21 0
-7 -10 31 0
2 4 6 -7 9 19 0
1 -7 8 9 22 0
-7 9 -30 0
2 4 6 8 -9 10 -20 0
1 -7 10 22 0
2 4 6 8 -9 -10 20 0
2 4 6 -7 -9 -19 0
-7 -9 30 0
-7 8 -29 0
-7 -8 9 10 -20 0
-7 -8 9 -10 20 0
1 -7 -8 -10 -22 0
-7 -8 9 21 0
2 3 4 -8 -9 10 20 0
2 3 4 -8 -9 -10 -20 0
-7 -8 -10 21 0
-7 -8 29 0
1 2 3 4 5 -7 17 0
1 2 -7 23 0
1 2 3 -7 24 0
1 2 3 4 -7 25 0
1 2 3 4 5 -7 26 0
1 2 3 4 5 6 -7 27 0
1 2 3 4 5 6 -7 -28 0
1 2 3 4 6 -16 0
1 3 5 -6 7 9 10 20 0
-6 7 8 10 21 0
1 3 5 -6 7 9 -10 -20 0
-6 -10 31 0
1 2 3 -6 7 8 9 19 0
1 3 5 -6 7 9 22 0
-6 9 -30 0
7 8 -9 10 -20 0
1 -6 10 22 0
7 8 -9 -10 20 0
1 2 3 -6 7 8 -9 -19 0
7 8 -9 21 0
-6 -9 30 0
1 3 5 -6 8 18 0
-6 8 -29 0
3 5 -6 9 10 21 0
1 3 5 7 -8 9 -19 0
1 3 5 7 -8 -9 19 0
1 3 5 -6 -8 -18 0
-6 -8 29 0
-6 7 -28 0
-6 -7 8 10 20 0
-6 -7 8 -10 -20 0
-6 -7 8 9 -19 0
1 -6 8 9 22 0
-6 -7 -9 10 -21 0
-6 -7 8 -9 19 0
1 3 5 -7 -8 9 19 0
-6 -7 -9 10 20 0
-6 -7 -9 -10 -20 0
1 3 5 -7 -8 -9 -19 0
-6 -7 28 0
1 2 3 4 -6 16 0
1 2 -6 23 0
1 2 3 -6 24 0
1 2 3 4 -6 25 0
1 2 3 4 5 -6 26 0
1 2 3 4 5 -6 -27 0
1 2 3 5 -15 0
-5 6 7 9 10 20 0
2 4 -5 6 8 10 21 0
-5 6 7 9 -10 -20 0
6 7 9 -10 -21 0
-5 -10 31 0
2 4 -5 6 8 9 19 0
1 -5 6 7 9 22 0
-5 9 -30 0
1 -5 10 22 0
2 4 -5 6 8 -9 -19 0
-5 -9 30 0
1 2 -5 6 7 8 18 0
-5 8 -29 0
6 7 -8 10 20 0
2 -5 6 7 9 10 21 0
6 7 -8 -10 -20 0
6 7 -8 9 -19 0
2 4 6 7 -9 -10 21 0
6 7 -8 -9 19 0
1 2 -5 6 7 -8 -18 0
-5 -8 29 0
2 4 -5 7 17 0
-5 7 -28 0
2 4 -5 8 9 10 20 0
2 4 -5 8 9 -10 -20 0
1 -5 8 9 22 0
2 4 6 -7 8 -18 0
2 4 6 -7 -8 18 0
2 4 -5 -7 -17 0
-5 -7 28 0
-5 6 -27 0
-5 7 8 10 21 0
-5 -6 7 9 19 0
-5 -6 7 -9 -19 0
-5 -6 7 8 -18 0
-5 -6 -8 9 10 -20 0
-5 -6 -8 9 -10 20 0
1 -5 -6 -8 -10 -22 0
-5 -6 -8 9 21 0
-5 -6 -8 -10 21 0
-5 -6 7 -8 18 0
2 4 -6 -7 9 10 21 0
2 4 -6 -7 -9 -10 21 0
2 4 -6 -7 8 18 0
-5 -6 -8 9 19 0
-5 -6 -8 -9 -19 0
2 4 -6 -7 -8 -18 0
-5 -6 27 0
1 2 3 -5 15 0
1 2 -5 23 0
1 2 3 -5 24 0
1 2 3 4 -5 25 0
1 2 3 4 -5 -26 0
1 2 4 -14 0
1 3 -4 5 7 9 10 20 0
-4 5 6 8 10 21 0
1 3 -4 5 7 9 -10 -20 0
-4 -10 31 0
-4 5 6 8 9 19 0
1 3 -4 5 7 9 22 0
-4 9 -30 0
5 6 8 -9 10 -20 0
1 -4 10 22 0
5 6 8 -9 -10 20 0
-4 5 6 8 -9 -19 0
5 6 8 -9 21 0
-4 -9 30 0
1 3 -4 5 7 8 18 0
-4 8 -29 0
3 -4 5 7 9 10 21 0
3 5 7 -9 -10 21 0
1 3 -4 5 7 -8 -18 0
-4 -8 29 0
1 -4 5 6 7 17 0
-4 7 -28 0
1 -4 5 6 8 9 10 20 0
1 -4 5 6 8 9 -10 -20 0
5 6 -7 9 19 0
1 -4 8 9 22 0
5 6 -7 -9 -19 0
5 6 -7 8 -18 0
1 3 5 6 -8 -9 10 20 0
1 3 5 6 -8 -9 -10 -20 0
5 6 -7 -8 18 0
1 -4 5 6 -7 -17 0
-4 -7 28 0
1 3 -4 6 16 0
-4 6 -27 0
-4 7 8 10 21 0
1 3 -4 7 8 9 19 0
1 3 -4 7 8 -9 -19 0
3 5 -6 -9 -10 21 0
1 3 5 -6 7 -17 0
1 3 -4 -7 -8 9 19 0
1 3 -4 -7 -8 -9 -19 0
1 3 5 -6 -7 17 0
1 3 -4 -6 -16 0
-4 -6 27 0
-4 5 -26 0
-4 6 7 9 10 20 0
-4 6 7 9 -10 -20 0
1 -4 6 7 9 22 0
-4 -5 6 8 18 0
-4 -5 6 9 10 21 0
-4 -5 6 -9 -10 21 0
-4 -5 6 -8 -18 0
-4 -5 6 7 -17 0
-4 -5 -7 8 10 20 0
-4 -5 -7 8 -10 -20 0
-4 -5 -7 8 9 -19 0
-4 -5 -7 -9 10 -21 0
-4 -5 -7 8 -9 19 0
-4 -5 -7 -9 10 20 0
-4 -5 -7 -9 -10 -20 0
-4 -5 6 -7 17 0
1 3 -5 -6 8 9 10 20 0
1 3 -5 -6 8 9 -10 -20 0
1 3 -5 -6 -8 -9 10 20 0
1 3 -5 -6 -8 -9 -10 -20 0
1 3 -5 -6 7 17 0
-4 -5 -7 9 10 21 0
-4 -5 -7 -9 -10 21 0
-4 -5 -7 8 18 0
-4 -5 -7 -8 -18 0
1 3 -5 -6 -7 -17 0
-4 -5 26 0
1 2 -4 14 0
1 2 -4 23 0
1 2 3 -4 24 0
1 2 3 -4 -25 0
1 3 -13 0
-3 4 5 7 9 10 20 0
2 -3 4 6 8 10 21 0
-3 4 5 7 9 -10 -20 0
4 5 7 9 -10 -21 0
-3 -10 31 0
2 -3 4 6 8 9 19 0
1 -3 4 5 7 9 22 0
-3 9 -30 0
1 -3 10 22 0
2 -3 4 6 8 -9 -19 0
-3 -9 30 0
-3 4 5 7 8 18 0
-3 8 -29 0
4 5 7 -8 10 20 0
-3 4 5 7 9 10 21 0
4 5 7 -8 -10 -20 0
4 5 7 -8 9 -19 0
4 5 7 -9 -10 21 0
4 5 7 -8 -9 19 0
-3 4 5 7 -8 -18 0
-3 -8 29 0
2 -3 4 6 7 17 0
-3 7 -28 0
2 -3 4 6 8 9 10 20 0
2 -3 4 6 8 9 -10 -20 0
1 -3 8 9 22 0
2 4 6 -8 -9 10 20 0
2 4 6 -8 -9 -10 -20 0
2 -3 4 6 -7 -17 0
-3 -7 28 0
-3 4 5 6 16 0
-3 6 -27 0
-3 7 8 10 21 0
-3 4 5 7 8 9 19 0
-3 4 5 7 8 -9 -19 0
4 5 -6 8 18 0
4 5 -6 9 10 21 0
4 5 -6 -9 -10 21 0
4 5 -6 -8 -18 0
4 5 -6 7 -17 0
2 4 5 -7 -8 9 19 0
2 4 5 -7 -8 -9 -19 0
4 5 -6 -7 17 0
-3 4 5 -6 -16 0
-3 -6 27 0
2 -3 5 15 0
-3 5 -26 0
-3 6 7 9 10 20 0
-3 6 7 9 -10 -20 0
1 -3 6 7 9 22 0
2 -3 6 7 8 18 0
2 -3 6 7 9 10 21 0
2 -3 6 7 -9 -10 21 0
2 -3 6 7 -8 -18 0
2 4 -5 -8 -9 10 20 0
2 4 -5 -8 -9 -10 -20 0
2 4 -5 6 -16 0
2 -3 -6 -7 9 10 21 0
2 -3 -6 -7 -9 -10 21 0
2 -3 -6 -7 8 18 0
2 -3 -6 -7 -8 -18 0
2 4 -5 -6 16 0
2 -3 -5 -15 0
-3 -5 26 0
-3 4 -25 0
-3 5 6 8 10 21 0
-3 5 6 8 9 19 0
-3 5 6 8 -9 -19 0
-3 -4 5 7 17 0
-3 -4 5 8 9 10 20 0
-3 -4 5 8 9 -10 -20 0
-3 -4 5 -8 -9 10 20 0
-3 -4 5 -8 -9 -10 -20 0
-3 -4 5 -7 -17 0
-3 -4 5 6 -16 0
-3 -4 -6 7 9 19 0
-3 -4 -6 7 -9 -19 0
-3 -4 -6 7 8 -18 0
-3 -4 -6 -8 9 10 -20 0
-3 -4 -6 -8 9 -10 20 0
1 -3 -4 -6 -8 -10 -22 0
-3 -4 -6 -8 9 21 0
-3 -4 -6 -8 -10 21 0
-3 -4 -6 7 -8 18 0
-3 -4 -6 -8 9 19 0
-3 -4 -6 -8 -9 -19 0
-3 -4 5 -6 16 0
2 -4 -5 7 8 9 19 0
2 -4 -5 7 8 -9 -19 0
2 -4 -5 -7 -8 9 19 0
2 -4 -5 -7 -8 -9 -19 0
2 -4 -5 6 16 0
-3 -4 -6 8 9 10 20 0
-3 -4 -6 8 9 -10 -20 0
-3 -4 -6 -8 -9 10 20 0
-3 -4 -6 -8 -9 -10 -20 0
-3 -4 -6 7 17 0
-3 -4 -6 -7 -17 0
2 -4 -5 -6 -16 0
-3 -4 25 0
1 -3 13 0
1 2 -3 23 0
1 2 -3 -24 0
2 -12 0
1 -2 3 5 7 9 10 20 0
-2 3 4 6 8 10 21 0
1 -2 3 5 7 9 -10 -20 0
-2 -10 31 0
-2 3 4 6 8 9 19 0
1 -2 3 5 7 9 22 0
-2 9 -30 0
3 4 6 8 -9 10 -20 0
1 -2 10 22 0
3 4 6 8 -9 -10 20 0
-2 3 4 6 8 -9 -19 0
3 4 6 8 -9 21 0
-2 -9 30 0
1 -2 3 5 7 8 18 0
-2 8 -29 0
-2 3 5 7 9 10 21 0
1 -2 3 5 7 -8 -18 0
-2 -8 29 0
-2 3 4 6 7 17 0
-2 7 -28 0
-2 3 4 6 8 9 10 20 0
-2 3 4 6 8 9 -10 -20 0
3 4 6 -7 9 19 0
1 -2 8 9 22 0
3 4 6 -7 -9 -19 0
3 4 6 -7 8 -18 0
3 4 6 -8 -9 10 20 0
3 4 6 -8 -9 -10 -20 0
3 4 6 -7 -8 18 0
-2 3 4 6 -7 -17 0
-2 -7 28 0
1 -2 3 5 6 16 0
-2 6 -27 0
-2 7 8 10 21 0
1 -2 3 5 7 8 9 19 0
1 -2 3 5 7 8 -9 -19 0
1 -2 3 5 -6 -16 0
-2 -6 27 0
-2 3 4 5 15 0
-2 5 -26 0
-2 6 7 9 10 20 0
-2 6 7 9 -10 -20 0
1 -2 6 7 9 22 0
-2 3 4 6 7 8 18 0
-2 3 4 6 7 9 10 21 0
3 4 6 7 -9 -10 21 0
-2 3 4 6 7 -8 -18 0
3 4 -5 7 17 0
3 4 -5 8 9 10 20 0
3 4 -5 8 9 -10 -20 0
3 4 -5 -8 -9 10 20 0
3 4 -5 -8 -9 -10 -20 0
3 4 -5 -7 -17 0
3 4 -5 6 -16 0
3 4 -6 -7 9 10 21 0
3 4 -6 -7 -9 -10 21 0
1 3 4 -6 -7 8 18 0
1 3 4 -6 -7 -8 -18 0
3 4 -5 -6 16 0
-2 3 4 -5 -15 0
-2 -5 26 0
1 -2 4 14 0
-2 4 -25 0
-2 5 6 8 10 21 0
-2 5 6 8 9 19 0
-2 5 6 8 -9 -19 0
1 -2 5 6 7 17 0
1 -2 5 6 8 9 10 20 0
1 -2 5 6 8 9 -10 -20 0
1 -2 5 6 -8 -9 10 20 0
1 -2 5 6 -8 -9 -10 -20 0
1 -2 5 6 -7 -17 0
1 3 -4 5 -15 0
1 -2 -5 -6 8 9 10 20 0
1 -2 -5 -6 8 9 -10 -20 0
1 -2 -5 -6 -8 -9 10 20 0
1 -2 -5 -6 -8 -9 -10 -20 0
1 -2 -5 -6 7 17 0
1 -2 -5 -6 -7 -17 0
1 3 -4 -5 15 0
1 -2 -4 -14 0
-2 -4 25 0
-2 3 -24 0
-2 4 5 7 9 10 20 0
-2 4 5 7 9 -10 -20 0
1 -2 4 5 7 9 22 0
-2 4 5 7 8 18 0
-2 4 5 7 9 10 21 0
-2 4 5 7 -8 -18 0
-2 -3 4 6 16 0
-2 -3 4 7 8 9 19 0
-2 -3 4 7 8 -9 -19 0
-2 -3 4 -7 -8 9 19 0
-2 -3 4 -7 -8 -9 -19 0
-2 -3 4 -6 -16 0
-2 -3 4 5 -15 0
-2 -3 -5 6 8 18 0
-2 -3 -5 6 9 10 21 0
-2 -3 -5 6 -9 -10 21 0
-2 -3 -5 6 -8 -18 0
-2 -3 -5 6 7 -17 0
-2 -3 -5 -7 8 10 20 0
-2 -3 -5 -7 8 -10 -20 0
-2 -3 -5 -7 8 9 -19 0
-2 -3 -5 -7 -9 10 -21 0
-2 -3 -5 -7 8 -9 19 0
-2 -3 -5 -7 -9 10 20 0
-2 -3 -5 -7 -9 -10 -20 0
-2 -3 -5 6 -7 17 0
-2 -3 -5 -7 9 10 21 0
-2 -3 -5 -7 -9 -10 21 0
-2 -3 -5 -7 8 18 0
-2 -3 -5 -7 -8 -18 0
-2 -3 4 -5 15 0
1 -3 -4 6 7 8 18 0
-3 -4 6 7 9 10 21 0
-3 -4 6 7 -9 -10 21 0
1 -3 -4 6 7 -8 -18 0
-3 -4 -6 -7 9 10 21 0
-3 -4 -6 -7 -9 -10 21 0
1 -3 -4 -6 -7 8 18 0
1 -3 -4 -6 -7 -8 -18 0
1 -3 -4 5 15 0
-2 -3 -5 7 8 9 19 0
-2 -3 -5 7 8 -9 -19 0
-2 -3 -5 -7 -8 9 19 0
-2 -3 -5 -7 -8 -9 -19 0
-2 -3 -5 6 16 0
-2 -3 -5 -6 -16 0
1 -3 -4 -5 -15 0
-2 -3 24 0
-2 12 0
1 -2 -23 0
1 -11 0
-1 2 3 5 7 9 10 20 0
-1 2 4 6 8 10 21 0
-1 2 3 5 7 9 -10 -20 0
2 3 5 7 9 -10 -21 0
-1 -10 31 0
-1 2 4 6 8 9 19 0
-1 2 3 5 7 9 -22 0
-1 2 3 5 7 9 -23 0
-1 3 5 7 9 -24 0
-1 4 5 7 9 -25 0
-1 5 7 9 -26 0
-1 6 7 9 -27 0
-1 7 9 -28 0
-1 8 9 -29 0
-1 9 -30 0
-1 10 -22 0
-1 2 10 -23 0
-1 3 10 -24 0
-1 4 10 -25 0
-1 5 10 -26 0
-1 6 10 -27 0
-1 7 10 -28 0
-1 8 10 -29 0
-1 -9 10 30 0
-1 -9 -10 22 0
2 -9 -10 23 0
2 3 -9 -10 24 0
2 3 4 -9 -10 25 0
2 3 4 5 -9 -10 26 0
2 3 4 5 6 -9 -10 27 0
2 3 4 5 6 7 -9 -10 28 0
2 3 4 5 6 7 8 -9 -10 29 0
-1 2 3 4 5 6 7 8 -10 -30 0
-1 2 4 6 8 -9 -19 0
-1 2 3 5 7 8 18 0
2 3 5 7 -8 10 20 0
-1 9 10 21 0
2 3 5 7 -8 -10 -20 0
2 3 5 7 -8 9 -19 0
-1 -8 9 29 0
-1 -8 10 29 0
-1 -9 -10 21 0
2 3 4 5 6 7 -8 -9 -10 -29 0
2 3 5 7 -8 -9 19 0
-1 2 3 5 7 -8 -18 0
-1 2 4 6 7 17 0
-1 2 3 4 8 9 10 20 0
-1 2 3 4 8 9 -10 -20 0
-1 8 9 -22 0
-1 2 8 9 -23 0
-1 3 8 9 -24 0
-1 4 8 9 -25 0
-1 5 8 9 -26 0
-1 6 8 9 -27 0
-1 -7 8 9 28 0
-1 -7 10 28 0
2 3 4 5 6 -7 -9 -10 -28 0
-1 -7 -8 -10 22 0
2 -7 -8 -10 23 0
2 3 -7 -8 -10 24 0
2 3 4 -7 -8 -10 25 0
2 3 4 5 -7 -8 -10 26 0
2 3 4 5 6 -7 -8 -10 27 0
2 3 4 5 6 -7 -8 -10 -28 0
-1 2 4 6 -7 -17 0
-1 2 3 5 6 16 0
-1 7 8 10 21 0
-1 2 3 5 7 8 9 19 0
-1 -6 7 9 27 0
-1 -6 10 27 0
2 3 4 5 -6 -9 -10 -27 0
-1 2 3 5 7 8 -9 -19 0
2 3 5 -6 8 18 0
2 3 5 -6 -8 -18 0
2 3 5 -6 7 -17 0
-1 -6 8 9 27 0
2 3 4 5 -6 -7 -8 -10 -27 0
2 3 5 -7 -8 9 19 0
2 3 5 -7 -8 -9 -19 0
2 3 5 -6 -7 17 0
-1 2 3 5 -6 -16 0
-1 2 4 5 15 0
-1 6 7 9 10 20 0
-1 6 7 9 -10 -20 0
-1 6 7 9 -22 0
-1 2 6 7 9 -23 0
-1 3 6 7 9 -24 0
-1 4 6 7 9 -25 0
-1 -5 6 7 9 26 0
-1 -5 10 26 0
2 3 4 -5 -9 -10 -26 0
-1 2 4 6 7 8 18 0
-1 2 4 6 7 -8 -18 0
-1 -5 8 9 26 0
2 3 4 -5 -7 -8 -10 -26 0
-1 -5 -6 -8 -10 22 0
2 -5 -6 -8 -10 23 0
2 3 -5 -6 -8 -10 24 0
2 3 4 -5 -6 -8 -10 25 0
2 3 4 -5 -6 -8 -10 -26 0
-1 2 4 -5 -15 0
-1 2 3 4 14 0
-1 5 6 8 10 21 0
-1 5 6 8 9 19 0
-1 -4 5 7 9 25 0
-1 -4 10 25 0
2 3 -4 -9 -10 -25 0
-1 5 6 8 -9 -19 0
-1 2 3 5 6 7 17 0
-1 2 3 5 6 8 9 10 20 0
-1 2 3 5 6 8 9 -10 -20 0
-1 -4 8 9 25 0
2 3 -4 -7 -8 -10 -25 0
2 3 5 6 -8 -9 10 20 0
2 3 5 6 -8 -9 -10 -20 0
-1 2 3 5 6 -7 -17 0
2 3 -4 6 16 0
2 3 -4 7 8 9 19 0
2 3 -4 7 8 -9 -19 0
2 3 -4 -7 -8 9 19 0
2 3 -4 -7 -8 -9 -19 0
2 3 -4 -6 -16 0
2 3 -4 5 -15 0
-1 -4 6 7 9 25 0
2 3 -5 -6 8 9 10 20 0
2 3 -5 -6 8 9 -10 -20 0
2 3 -4 -5 -6 -8 -10 -25 0
2 3 -5 -6 -8 -9 10 20 0
2 3 -5 -6 -8 -9 -10 -20 0
2 3 -5 -6 7 17 0
2 3 -5 -6 -7 -17 0
2 3 -4 -5 15 0
-1 2 3 -4 -14 0
-1 3 13 0
-1 4 5 7 9 10 20 0
-1 4 5 7 9 -10 -20 0
-1 4 5 7 9 -22 0
-1 2 4 5 7 9 -23 0
-1 -3 4 5 7 9 24 0
-1 -3 10 24 0
2 -3 -9 -10 -24 0
-1 4 5 7 8 18 0
-1 4 5 7 -8 -18 0
-1 2 4 6 8 9 10 20 0
-1 2 4 6 8 9 -10 -20 0
-1 -3 8 9 24 0
2 -3 -7 -8 -10 -24 0
-1 4 5 6 16 0
-1 4 5 7 8 9 19 0
-1 4 5 7 8 -9 -19 0
-1 4 5 -7 -8 9 19 0
-1 4 5 -7 -8 -9 -19 0
-1 4 5 -6 -16 0
-1 -3 6 7 9 24 0
2 -3 -5 -6 -8 -10 -24 0
2 -3 4 -14 0
-1 -3 -4 -6 -8 -10 22 0
2 -3 -4 -6 -8 -10 23 0
2 -3 -4 -6 -8 -10 -24 0
-1 -4 -5 7 8 9 19 0
-1 -4 -5 7 8 -9 -19 0
-1 -4 -5 -7 -8 9 19 0
-1 -4 -5 -7 -8 -9 -19 0
-1 -4 -5 6 16 0
-1 -4 -5 -6 -16 0
2 -3 -4 14 0
-1 -3 -13 0
-1 3 4 6 8 10 21 0
-1 3 4 6 8 9 19 0
-1 -2 4 5 7 9 23 0
-1 -2 10 23 0
-2 -9 -10 -23 0
-1 3 4 6 8 -9 -19 0
-1 3 4 6 7 17 0
-1 3 4 6 8 9 10 20 0
-1 3 4 6 8 9 -10 -20 0
-1 -2 8 9 23 0
-2 -7 -8 -10 -23 0
-1 3 4 6 -7 -17 0
-1 -2 3 5 15 0
-1 -2 6 7 9 23 0
-1 -2 3 6 7 8 18 0
-1 -2 3 6 7 -8 -18 0
-2 -5 -6 -8 -10 -23 0
-1 -2 3 -6 -7 8 18 0
-1 -2 3 -6 -7 -8 -18 0
-1 -2 3 -5 -15 0
-1 -2 3 4 -14 0
-1 -2 -4 5 7 17 0
-1 -2 -4 5 8 9 10 20 0
-1 -2 -4 5 8 9 -10 -20 0
-1 -2 -4 5 -8 -9 10 20 0
-1 -2 -4 5 -8 -9 -10 -20 0
-1 -2 -4 5 -7 -17 0
-1 -2 -4 5 6 -16 0
-1 -2 -4 -6 7 9 19 0
-1 -2 -4 -6 7 -9 -19 0
-1 -2 -4 -6 7 8 -18 0
-1 -2 -4 -6 -8 9 10 -20 0
-1 -2 -4 -6 -8 9 -10 20 0
-1 -2 -4 -6 -8 -10 22 0
-2 -4 -6 -8 -10 -23 0
-1 -2 -4 -6 -8 9 21 0
-1 -2 -4 -6 -8 -10 21 0
-1 -2 -4 -6 7 -8 18 0
-1 -2 -4 -6 -8 9 19 0
-1 -2 -4 -6 -8 -9 -19 0
-1 -2 -4 5 -6 16 0
-1 -2 -4 -6 8 9 10 20 0
-1 -2 -4 -6 8 9 -10 -20 0
-1 -2 -4 -6 -8 -9 10 20 0
-1 -2 -4 -6 -8 -9 -10 -20 0
-1 -2 -4 -6 7 17 0
-1 -2 -4 -6 -7 -17 0
-1 -2 3 -4 14 0
-2 -3 5 6 7 17 0
-2 -3 5 6 8 9 10 20 0
-2 -3 5 6 8 9 -10 -20 0
-2 -3 5 6 -8 -9 10 20 0
-2 -3 5 6 -8 -9 -10 -20 0
-2 -3 5 6 -7 -17 0
-2 -3 -5 -6 8 9 10 20 0
-2 -3 -5 -6 8 9 -10 -20 0
-2 -3 -5 -6 -8 -9 10 20 0
-2 -3 -5 -6 -8 -9 -10 -20 0
-2 -3 -5 -6 7 17 0
-2 -3 -5 -6 -7 -17 0
-2 -3 4 14 0
-1 -2 -4 6 7 8 18 0
-1 -2 -4 6 7 -8 -18 0
-1 -2 -4 -6 -7 8 18 0
-1 -2 -4 -6 -7 -8 -18 0
-1 -2 -4 5 15 0
-1 -2 -4 -5 -15 0
-2 -3 -4 -14 0
-1 11 0
